Gurobi Optimizer version 9.1.0 build v9.1.0rc0 (linux64)
Thread count: 8 physical cores, 16 logical processors, using up to 16 threads
Optimize a model with 127786 rows, 120480 columns and 691170 nonzeros
Model fingerprint: 0x25a5603e
Variable types: 0 continuous, 120480 integer (120480 binary)
Coefficient statistics:
  Matrix range     [1e+00, 1e+00]
  Objective range  [1e+01, 5e+04]
  Bounds range     [1e+00, 1e+00]
  RHS range        [1e+00, 5e+02]
Presolve added 0 rows and 2970 columns
Presolve removed 30 rows and 0 columns
Presolve time: 2.04s
Presolved: 127756 rows, 123450 columns, 520110 nonzeros
Variable types: 0 continuous, 123450 integer (123450 binary)
Found heuristic solution: objective 484658.00000

Concurrent LP optimizer: primal simplex, dual simplex, and barrier
Showing barrier log only...

Root barrier log...

Ordering time: 0.04s

Barrier statistics:
 Dense cols : 240
 AA' NZ     : 4.061e+05
 Factor NZ  : 1.637e+06 (roughly 120 MBytes of memory)
 Factor Ops : 2.201e+08 (less than 1 second per iteration)
 Threads    : 6

                  Objective                Residual
Iter       Primal          Dual         Primal    Dual     Compl     Time
   0   1.28277386e+08 -1.74256644e+08  2.82e+02 3.12e+01  1.63e+04     4s
   1   8.55362688e+05 -1.97852682e+08  9.95e-01 8.65e+02  5.85e+02     4s
   2   5.86092616e+05 -7.00859674e+07  2.39e-01 2.97e+02  1.96e+02     5s
   3   5.56971294e+05 -2.92146816e+07  1.54e-01 1.21e+02  8.20e+01     5s
   4   5.11151808e+05 -7.75045911e+06  2.73e-02 3.52e+01  2.24e+01     5s
   5   5.06181561e+05 -1.81571791e+06  2.19e-02 9.57e+00  6.29e+00     5s
   6   4.82204507e+05 -1.95291653e+05  1.19e-02 2.18e+00  1.83e+00     6s
   7   4.69082637e+05  1.50250491e+05  9.16e-03 9.87e-01  8.58e-01     6s
   8   4.55067695e+05  2.56244113e+05  7.04e-03 6.06e-01  5.34e-01     6s
   9   4.43407538e+05  3.18370225e+05  5.80e-03 3.05e-01  3.35e-01     6s
  10   4.33341298e+05  3.46446523e+05  4.77e-03 1.74e-01  2.32e-01     7s
  11   4.28905445e+05  3.51729002e+05  4.32e-03 1.51e-01  2.06e-01     7s
  12   4.21772699e+05  3.63519332e+05  3.65e-03 1.22e-01  1.55e-01     7s
  13   4.10899345e+05  3.72116217e+05  2.63e-03 7.49e-02  1.03e-01     7s
  14   4.07481949e+05  3.74500159e+05  2.28e-03 6.08e-02  8.78e-02     8s
  15   4.03494221e+05  3.77832609e+05  1.89e-03 3.98e-02  6.82e-02     8s
  16   3.98336418e+05  3.80204069e+05  1.35e-03 2.67e-02  4.82e-02     8s
  17   3.95123627e+05  3.81306850e+05  1.03e-03 2.08e-02  3.67e-02     9s
  18   3.93079504e+05  3.82806580e+05  8.39e-04 2.04e-02  2.73e-02     9s
  19   3.91230633e+05  3.83440580e+05  6.46e-04 1.59e-02  2.07e-02     9s
  20   3.90711271e+05  3.83780035e+05  5.91e-04 1.31e-02  1.84e-02     9s
  21   3.89519829e+05  3.84115019e+05  4.64e-04 1.03e-02  1.43e-02    10s
  22   3.88781661e+05  3.84566730e+05  3.90e-04 9.79e-03  1.12e-02    10s
  23   3.87963812e+05  3.84799918e+05  2.99e-04 7.01e-03  8.37e-03    10s
  24   3.87475090e+05  3.85002666e+05  2.46e-04 4.56e-03  6.53e-03    10s
  25   3.87253187e+05  3.85081201e+05  2.19e-04 4.51e-03  5.74e-03    10s
  26   3.86898704e+05  3.85137043e+05  1.81e-04 3.60e-03  4.65e-03    11s
  27   3.86604989e+05  3.85182582e+05  1.50e-04 3.21e-03  3.75e-03    11s
  28   3.86416105e+05  3.85222967e+05  1.27e-04 2.93e-03  3.15e-03    11s
  29   3.86178788e+05  3.85251563e+05  1.01e-04 2.56e-03  2.44e-03    11s
  30   3.86078903e+05  3.85269067e+05  8.81e-05 2.21e-03  2.13e-03    12s
  31   3.85958877e+05  3.85290818e+05  7.45e-05 1.69e-03  1.76e-03    12s
  32   3.85900283e+05  3.85300346e+05  6.76e-05 1.50e-03  1.58e-03    12s
  33   3.85859225e+05  3.85314647e+05  6.25e-05 1.31e-03  1.43e-03    12s
  34   3.85738967e+05  3.85325766e+05  4.71e-05 1.14e-03  1.09e-03    13s
  35   3.85684672e+05  3.85343964e+05  4.02e-05 8.55e-04  8.96e-04    13s
  36   3.85635636e+05  3.85351220e+05  3.37e-05 7.53e-04  7.48e-04    13s
  37   3.85601595e+05  3.85356707e+05  2.92e-05 6.53e-04  6.44e-04    13s
  38   3.85561927e+05  3.85364223e+05  2.36e-05 5.22e-04  5.20e-04    13s
  39   3.85535897e+05  3.85368076e+05  2.01e-05 4.49e-04  4.41e-04    14s
  40   3.85517860e+05  3.85373842e+05  1.75e-05 3.45e-04  3.78e-04    14s
  41   3.85493364e+05  3.85378447e+05  1.40e-05 2.62e-04  3.02e-04    14s
  42   3.85469069e+05  3.85381015e+05  1.07e-05 2.15e-04  2.31e-04    14s
  43   3.85462214e+05  3.85383652e+05  9.79e-06 1.73e-04  2.06e-04    14s
  44   3.85455890e+05  3.85384514e+05  8.85e-06 1.61e-04  1.87e-04    15s
  45   3.85450640e+05  3.85385934e+05  8.15e-06 1.36e-04  1.70e-04    15s
  46   3.85437981e+05  3.85387365e+05  6.30e-06 1.10e-04  1.33e-04    15s
  47   3.85429631e+05  3.85388792e+05  5.19e-06 8.51e-05  1.07e-04    15s
  48   3.85422953e+05  3.85389622e+05  4.21e-06 7.19e-05  8.75e-05    15s
  49   3.85417509e+05  3.85391011e+05  3.40e-06 4.71e-05  6.95e-05    16s
  50   3.85412627e+05  3.85391830e+05  2.73e-06 3.47e-05  5.45e-05    16s
  51   3.85407717e+05  3.85392595e+05  1.99e-06 2.25e-05  3.96e-05    16s
  52   3.85404124e+05  3.85393085e+05  1.47e-06 1.59e-05  2.89e-05    16s
  53   3.85402212e+05  3.85393215e+05  1.21e-06 1.38e-05  2.36e-05    16s
  54   3.85400198e+05  3.85393607e+05  9.33e-07 8.17e-06  1.72e-05    17s
  55   3.85398368e+05  3.85393769e+05  6.75e-07 6.14e-06  1.20e-05    17s
  56   3.85397420e+05  3.85393849e+05  5.17e-07 5.10e-06  9.33e-06    17s
  57   3.85397273e+05  3.85393977e+05  4.93e-07 3.35e-06  8.60e-06    17s
  58   3.85396190e+05  3.85394030e+05  3.12e-07 2.69e-06  5.64e-06    17s
  59   3.85395868e+05  3.85394118e+05  2.61e-07 1.65e-06  4.57e-06    18s
  60   3.85395238e+05  3.85394179e+05  1.64e-07 8.76e-07  2.76e-06    18s
  61   3.85394355e+05  3.85394241e+05  1.14e-08 1.44e-07  3.02e-07    18s
  62   3.85394268e+05  3.85394263e+05  2.63e-10 1.86e-07  1.32e-08    18s
  63   3.85394268e+05  3.85394263e+05  1.20e-08 1.86e-07  1.32e-08    18s
  64   3.85394268e+05  3.85394263e+05  1.11e-08 1.85e-07  1.32e-08    18s
  65   3.85394268e+05  3.85394263e+05  1.12e-08 1.77e-07  1.32e-08    19s

Barrier solved model in 65 iterations and 18.65 seconds
Optimal objective 3.85394268e+05


Root crossover log...

   55804 DPushes remaining with DInf 0.0000000e+00                19s
       0 DPushes remaining with DInf 0.0000000e+00                20s

     759 PPushes remaining with PInf 3.5344729e-05                20s
       0 PPushes remaining with PInf 0.0000000e+00                20s

  Push phase complete: Pinf 0.0000000e+00, Dinf 8.3332452e-11     20s


Root simplex log...

Iteration    Objective       Primal Inf.    Dual Inf.      Time
    7755    3.8539426e+05   0.000000e+00   0.000000e+00     20s
    7755    3.8539426e+05   0.000000e+00   0.000000e+00     20s

Solved with barrier

Root relaxation: objective 3.853943e+05, 7755 iterations, 16.51 seconds
Total elapsed time = 20.57s

    Nodes    |    Current Node    |     Objective Bounds      |     Work
 Expl Unexpl |  Obj  Depth IntInf | Incumbent    BestBd   Gap | It/Node Time

     0     0 385394.265    0 9524 484658.000 385394.265  20.5%     -   22s
H    0     0                    395053.00000 385394.265  2.44%     -   22s
H    0     0                    394623.00000 385394.265  2.34%     -   23s
H    0     0                    394269.00000 385394.265  2.25%     -   24s
     0     0 385396.787    0 9846 394269.000 385396.787  2.25%     -   31s
H    0     0                    394267.00000 385396.787  2.25%     -   33s
H    0     0                    393054.00000 385396.787  1.95%     -   43s
     0     0 385397.158    0 9837 393054.000 385397.158  1.95%     -   44s
     0     0 385400.367    0 9563 393054.000 385400.367  1.95%     -   50s
H    0     0                    392986.00000 385400.367  1.93%     -   52s
     0     0 385400.376    0 9561 392986.000 385400.376  1.93%     -   53s
     0     0 385406.554    0 10309 392986.000 385406.554  1.93%     -   63s
     0     0 385406.674    0 10314 392986.000 385406.674  1.93%     -   65s
     0     0 385406.755    0 10290 392986.000 385406.755  1.93%     -   65s
     0     0 385406.764    0 10297 392986.000 385406.764  1.93%     -   66s
     0     0 385421.049    0 9894 392986.000 385421.049  1.92%     -   76s
H    0     0                    392888.00000 385421.049  1.90%     -   78s
     0     0 385421.253    0 9891 392888.000 385421.253  1.90%     -   79s
     0     0 385421.291    0 9892 392888.000 385421.291  1.90%     -   79s
     0     0 385434.979    0 10358 392888.000 385434.979  1.90%     -   88s
     0     0 385435.975    0 10365 392888.000 385435.975  1.90%     -   90s
     0     0 385436.004    0 10360 392888.000 385436.004  1.90%     -   90s
     0     0 385436.051    0 10360 392888.000 385436.051  1.90%     -   93s
H    0     0                    392801.00000 385436.051  1.87%     -   95s
     0     0 385436.051    0 10357 392801.000 385436.051  1.87%     -   95s
     0     0 385444.684    0 10362 392801.000 385444.684  1.87%     -  105s
     0     0 385445.131    0 10355 392801.000 385445.131  1.87%     -  107s
     0     0 385445.160    0 10362 392801.000 385445.160  1.87%     -  108s
     0     0 385445.206    0 10369 392801.000 385445.206  1.87%     -  111s
H    0     0                    392772.00000 385445.206  1.87%     -  112s
     0     0 385445.206    0 10372 392772.000 385445.206  1.87%     -  113s
     0     0 385445.206    0 10349 392772.000 385445.206  1.87%     -  118s
H    0     0                    392764.00000 385445.206  1.86%     -  145s
H    0     0                    392748.00000 385445.206  1.86%     -  146s
H    0     2                    392735.00000 385445.206  1.86%     -  148s
     0     2 385445.206    0 10348 392735.000 385445.206  1.86%     -  148s
     1     4 385660.775    1 10614 392735.000 385445.247  1.86% 12377  197s
     3     8 385791.039    2 11006 392735.000 385660.885  1.80% 10979  283s

Cutting planes:
  Gomory: 4
  Zero half: 101

Explored 7 nodes (75857 simplex iterations) in 300.06 seconds
Thread count was 16 (of 16 available processors)

Solution count 10: 392735 392748 392764 ... 394269

Time limit reached
Best objective 3.927350000000e+05, best bound 3.857910530663e+05, gap 1.7681%

User-callback calls 67073, time in user-callback 0.77 sec
['/opt/local/stow/gurobi910/linux64/lib/libgurobi91.so']
Result: runtime=283.87sec; objective=392735; gap=0.0177%
Solution written to /autofs/unityaccount/cremi/mdeboute/Bureau/multi-period-flp/solution//instMulti_I30_J500_T8_0_result.txt
